8 3 -1 6 -1 
8 -1 6 7 -1 
8 3 3 1 -1 
0 8 8 5 -1 
-1 0 9 8 -1 
-1 2 -1 9 -1 
2 -1 10 -1 -1 
5 -1 3 10 -1 
5 10 1 9 -1 
-1 10 7 10 -1 
-1 -1 -1 9 -1 
3 2 5 2 -1 
-1 -1 5 -1 -1 
9 7 2 1 -1 
3 4 5 2 -1 
